
Gurobi 6.5.2 (linux64) logging started Mon Aug 29 10:57:57 2016

Optimize a model with 201 rows, 1585 columns and 3473 nonzeros
Coefficient statistics:
  Matrix range    [1e+00, 2e+00]
  Objective range [1e+00, 1e+02]
  Bounds range    [1e+00, 1e+00]
  RHS range       [1e+00, 1e+00]
Found heuristic solution: objective 3299
Presolve removed 52 rows and 6 columns
Presolve time: 0.01s
Presolved: 149 rows, 1579 columns, 3249 nonzeros
Variable types: 0 continuous, 1579 integer (1579 binary)

Root relaxation: objective 1.289250e+03, 135 iterations, 0.00 seconds

    Nodes    |    Current Node    |     Objective Bounds      |     Work
 Expl Unexpl |  Obj  Depth IntInf | Incumbent    BestBd   Gap | It/Node Time

     0     0 1289.25000    0   30 3299.00000 1289.25000  60.9%     -    0s
H    0     0                    1590.0000000 1289.25000  18.9%     -    0s
H    0     0                    1433.0000000 1289.25000  10.0%     -    0s
H    0     0                    1382.0000000 1289.25000  6.71%     -    0s
     0     0 1345.25000    0   24 1382.00000 1345.25000  2.66%     -    0s
H    0     0                    1366.0000000 1345.25000  1.52%     -    0s
     0     0 1347.50000    0    4 1366.00000 1347.50000  1.35%     -    0s
     0     0 1347.50000    0   30 1366.00000 1347.50000  1.35%     -    0s
     0     0 1347.50000    0   15 1366.00000 1347.50000  1.35%     -    0s
     0     0 1347.50000    0   16 1366.00000 1347.50000  1.35%     -    0s
H    0     0                    1362.0000000 1347.50000  1.06%     -    0s
     0     0 1349.00000    0    2 1362.00000 1349.00000  0.95%     -    0s
     0     0 1349.00000    0   28 1362.00000 1349.00000  0.95%     -    0s
     0     0 1349.00000    0    8 1362.00000 1349.00000  0.95%     -    0s
     0     0 1349.00000    0    2 1362.00000 1349.00000  0.95%     -    0s
H    0     0                    1357.0000000 1349.00000  0.59%     -    0s
     0     0 1349.50000    0    8 1357.00000 1349.50000  0.55%     -    0s
     0     0 1349.50000    0   32 1357.00000 1349.50000  0.55%     -    0s
     0     0 1349.50000    0   12 1357.00000 1349.50000  0.55%     -    0s
     0     0 1349.50000    0    8 1357.00000 1349.50000  0.55%     -    0s
*    0     0               0    1350.0000000 1350.00000  0.00%     -    0s

Cutting planes:
  Gomory: 24
  Cover: 31
  Clique: 3
  Zero half: 8

Explored 0 nodes (762 simplex iterations) in 0.12 seconds
Thread count was 8 (of 8 available processors)

Optimal solution found (tolerance 1.00e-04)
Best objective 1.350000000000e+03, best bound 1.350000000000e+03, gap 0.0%
